job_count = 14 ;
duration = [|29, 6, 11, 9|36, 21, 12, 1|6, 4, 16, 8|20, 29, 19, 7|37, 5, 9, 2|19, 14, 19, 9|32, 27, 15, 2|34, 5, 8, 7|22, 14, 17, 8|7, 4, 18, 5|24, 7, 3, 8|15, 20, 19, 2|35, 15, 19, 7|9, 5, 11, 3|] ;
machine_count = 4 ;
cost = [|14, 39, 55, 57|19, 36, 34, 59|18, 38, 59, 64|10, 26, 57, 78|11, 38, 31, 69|16, 22, 56, 65|16, 21, 43, 43|16, 33, 40, 41|13, 26, 48, 71|15, 28, 35, 56|16, 37, 48, 71|17, 36, 35, 54|18, 25, 39, 78|19, 29, 33, 77|] ;
deadline = [29, 29, 29, 29, 29, 29, 29, 29, 29, 29, 29, 29, 29, 29] ;
release = [0, 0, 0, 0, 0, 0, 0, 0, 0, 0, 0, 0, 0, 0] ;
resource = [|9, 9, 9, 9|4, 4, 4, 4|1, 1, 1, 1|3, 3, 3, 3|7, 7, 7, 7|6, 6, 6, 6|9, 9, 9, 9|4, 4, 4, 4|6, 6, 6, 6|8, 8, 8, 8|3, 3, 3, 3|5, 5, 5, 5|5, 5, 5, 5|8, 8, 8, 8|] ;
capacities = [10, 10, 10, 10] ;
